p cnf 15 33
c  arcs du graphe
 -1  2 0
 -1  7 0
 -2  1 0
 -2  3 0
 -3  2 0
 -3  4 0
 -4  5 0
 -4 15 0
 -5  2 0
 -5  4 0
 -6  5 0
 -7  1 0
 -7  8 0
 -7  6 0
 -8  7 0
 -8  9 0
 -8 10 0
 -9  8 0
-10  8 0
-10 11 0
-10 12 0
-11  9 0
-11 10 0
-12  6 0
-12 10 0
-12 13 0
-12 15 0
-13 11 0
-14 13 0
-14 15 0
-15 12 0
c  sommet source
1 0
c  sommet destination
-14 0